(set-logic HORN)

(declare-fun $main_inv147 ((Array Int Int) (Array Int Int) (Array Int Int) (Array Int Int) (Array Int Int) (Array Int Int) (Array Int Int) Int Int Int) Bool)
(declare-fun __VERIFIER_assert (Int) Bool)
(declare-fun $main_inv151 ((Array Int Int) (Array Int Int) (Array Int Int) (Array Int Int) (Array Int Int) (Array Int Int) (Array Int Int) Int Int Int) Bool)
(declare-fun $__VERIFIER_assert_if54 (Int) Bool)
(declare-fun $main_sum154 ((Array Int Int) (Array Int Int) (Array Int Int) (Array Int Int) (Array Int Int) (Array Int Int) (Array Int Int) Int Int Int) Bool)
(declare-fun $main_inv149 ((Array Int Int) (Array Int Int) (Array Int Int) (Array Int Int) (Array Int Int) (Array Int Int) (Array Int Int) Int Int Int) Bool)
(declare-fun $main_sum148 ((Array Int Int) (Array Int Int) (Array Int Int) (Array Int Int) (Array Int Int) (Array Int Int) (Array Int Int) Int Int Int) Bool)
(declare-fun $main_sum149 ((Array Int Int) (Array Int Int) (Array Int Int) (Array Int Int) (Array Int Int) (Array Int Int) (Array Int Int) Int Int Int) Bool)
(declare-fun $main_sum150 ((Array Int Int) (Array Int Int) (Array Int Int) (Array Int Int) (Array Int Int) (Array Int Int) (Array Int Int) Int Int Int) Bool)
(declare-fun $main_inv153 ((Array Int Int) (Array Int Int) (Array Int Int) (Array Int Int) (Array Int Int) (Array Int Int) (Array Int Int) Int Int Int) Bool)
(declare-fun $main_sum152 ((Array Int Int) (Array Int Int) (Array Int Int) (Array Int Int) (Array Int Int) (Array Int Int) (Array Int Int) Int Int Int) Bool)
(declare-fun $__VERIFIER_assert_ERROR (Int) Bool)
(declare-fun $main_sum153 ((Array Int Int) (Array Int Int) (Array Int Int) (Array Int Int) (Array Int Int) (Array Int Int) (Array Int Int) Int Int Int) Bool)
(declare-fun $__VERIFIER_assert_pre (Int) Bool)
(declare-fun $main_inv148 ((Array Int Int) (Array Int Int) (Array Int Int) (Array Int Int) (Array Int Int) (Array Int Int) (Array Int Int) Int Int Int) Bool)
(declare-fun $main_inv150 ((Array Int Int) (Array Int Int) (Array Int Int) (Array Int Int) (Array Int Int) (Array Int Int) (Array Int Int) Int Int Int) Bool)
(declare-fun $main_sum147 ((Array Int Int) (Array Int Int) (Array Int Int) (Array Int Int) (Array Int Int) (Array Int Int) (Array Int Int) Int Int Int) Bool)
(declare-fun $main_sum151 ((Array Int Int) (Array Int Int) (Array Int Int) (Array Int Int) (Array Int Int) (Array Int Int) (Array Int Int) Int Int Int) Bool)
(declare-fun $main_inv152 ((Array Int Int) (Array Int Int) (Array Int Int) (Array Int Int) (Array Int Int) (Array Int Int) (Array Int Int) Int Int Int) Bool)
(declare-fun $main_inv154 ((Array Int Int) (Array Int Int) (Array Int Int) (Array Int Int) (Array Int Int) (Array Int Int) (Array Int Int) Int Int Int) Bool)

; label ERROR
(assert
  (forall ((cond Int))
    (=> (and (= cond 0)
             ($__VERIFIER_assert_pre cond))
        ($__VERIFIER_assert_ERROR cond))))

; error
(assert
  (forall ((cond2317 Int))
    (=> (and ($__VERIFIER_assert_ERROR cond2317))
        false)))

; if else
(assert
  (forall ((cond Int))
    (=> (and (not (= cond 0))
             ($__VERIFIER_assert_pre cond))
        ($__VERIFIER_assert_if54 cond))))

; post __VERIFIER_assert
(assert
  (forall ((cond2318 Int))
    (=> (and ($__VERIFIER_assert_if54 cond2318))
        (__VERIFIER_assert cond2318))))

; loop entry $main_inv147
(assert
  (forall (($a1234 (Array Int Int)) ($a6239 (Array Int Int)) ($a7240 (Array Int Int)) ($i242 Int) ($a4237 (Array Int Int)) ($a5238 (Array Int Int)) ($a3236 (Array Int Int)) ($a2235 (Array Int Int)) ($x243 Int))
        ($main_inv147 $a1234 $a2235 $a3236 $a4237 $a5238 $a6239 $a7240 0 $i242 $x243)))

; loop term $main_sum147
(assert
  (forall (($a62392324 (Array Int Int)) ($a2412326 Int) ($a52382323 (Array Int Int)) ($a72402325 (Array Int Int)) ($a32362321 (Array Int Int)) ($a42372322 (Array Int Int)) ($i2422327 Int) ($x2432328 Int) ($a22352320 (Array Int Int)) ($a12342319 (Array Int Int)))
    (=> (and (not (< $a2412326 100000))
             ($main_inv147 $a12342319 $a22352320 $a32362321 $a42372322 $a52382323 $a62392324 $a72402325 $a2412326 $i2422327 $x2432328))
        ($main_sum147 $a12342319 $a22352320 $a32362321 $a42372322 $a52382323 $a62392324 $a72402325 $a2412326 $i2422327 $x2432328))))

; forwards $main_inv147
(assert
  (forall (($a62392324 (Array Int Int)) ($a2412326 Int) ($a52382323 (Array Int Int)) ($a72402325 (Array Int Int)) ($int2329 Int) ($a32362321 (Array Int Int)) ($a42372322 (Array Int Int)) ($i2422327 Int) ($x2432328 Int) ($a22352320 (Array Int Int)) ($a12342319 (Array Int Int)))
    (=> (and (<= (- 2147483648) $int2329)
             (<= $int2329 2147483647)
             (< $a2412326 100000)
             ($main_inv147 $a12342319 $a22352320 $a32362321 $a42372322 $a52382323 $a62392324 $a72402325 $a2412326 $i2422327 $x2432328))
        ($main_inv147 (store $a12342319 $a2412326 $int2329) $a22352320 $a32362321 $a42372322 $a52382323 $a62392324 $a72402325 (+ $a2412326 1) $i2422327 $x2432328))))

; loop entry $main_inv148
(assert
  (forall (($a22352331 (Array Int Int)) ($a72402336 (Array Int Int)) ($a62392335 (Array Int Int)) ($a2412337 Int) ($a42372333 (Array Int Int)) ($a52382334 (Array Int Int)) ($i2422338 Int) ($x2432339 Int) ($a32362332 (Array Int Int)) ($a12342330 (Array Int Int)))
    (=> (and ($main_sum147 $a12342330 $a22352331 $a32362332 $a42372333 $a52382334 $a62392335 $a72402336 $a2412337 $i2422338 $x2432339))
        ($main_inv148 $a12342330 $a22352331 $a32362332 $a42372333 $a52382334 $a62392335 $a72402336 $a2412337 0 $x2432339))))

; loop term $main_sum148
(assert
  (forall (($a42372343 (Array Int Int)) ($i2422348 Int) ($a62392345 (Array Int Int)) ($a12342340 (Array Int Int)) ($a52382344 (Array Int Int)) ($a32362342 (Array Int Int)) ($x2432349 Int) ($a72402346 (Array Int Int)) ($a22352341 (Array Int Int)) ($a2412347 Int))
    (=> (and (not (< $i2422348 100000))
             ($main_inv148 $a12342340 $a22352341 $a32362342 $a42372343 $a52382344 $a62392345 $a72402346 $a2412347 $i2422348 $x2432349))
        ($main_sum148 $a12342340 $a22352341 $a32362342 $a42372343 $a52382344 $a62392345 $a72402346 $a2412347 $i2422348 $x2432349))))

; forwards $main_inv148
(assert
  (forall (($a42372343 (Array Int Int)) ($i2422348 Int) ($a62392345 (Array Int Int)) ($a12342340 (Array Int Int)) ($a52382344 (Array Int Int)) ($a32362342 (Array Int Int)) ($x2432349 Int) ($a72402346 (Array Int Int)) ($a22352341 (Array Int Int)) ($a2412347 Int))
    (=> (and (< $i2422348 100000)
             ($main_inv148 $a12342340 $a22352341 $a32362342 $a42372343 $a52382344 $a62392345 $a72402346 $a2412347 $i2422348 $x2432349))
        ($main_inv148 $a12342340 (store $a22352341 $i2422348 (select $a12342340 $i2422348)) $a32362342 $a42372343 $a52382344 $a62392345 $a72402346 $a2412347 (+ $i2422348 1) $x2432349))))

; loop entry $main_inv149
(assert
  (forall (($a22352351 (Array Int Int)) ($i2422358 Int) ($a2412357 Int) ($a32362352 (Array Int Int)) ($a12342350 (Array Int Int)) ($a72402356 (Array Int Int)) ($a52382354 (Array Int Int)) ($x2432359 Int) ($a42372353 (Array Int Int)) ($a62392355 (Array Int Int)))
    (=> (and ($main_sum148 $a12342350 $a22352351 $a32362352 $a42372353 $a52382354 $a62392355 $a72402356 $a2412357 $i2422358 $x2432359))
        ($main_inv149 $a12342350 $a22352351 $a32362352 $a42372353 $a52382354 $a62392355 $a72402356 $a2412357 0 $x2432359))))

; loop term $main_sum149
(assert
  (forall (($a22352361 (Array Int Int)) ($a2412367 Int) ($a62392365 (Array Int Int)) ($a32362362 (Array Int Int)) ($x2432369 Int) ($a52382364 (Array Int Int)) ($i2422368 Int) ($a72402366 (Array Int Int)) ($a12342360 (Array Int Int)) ($a42372363 (Array Int Int)))
    (=> (and (not (< $i2422368 100000))
             ($main_inv149 $a12342360 $a22352361 $a32362362 $a42372363 $a52382364 $a62392365 $a72402366 $a2412367 $i2422368 $x2432369))
        ($main_sum149 $a12342360 $a22352361 $a32362362 $a42372363 $a52382364 $a62392365 $a72402366 $a2412367 $i2422368 $x2432369))))

; forwards $main_inv149
(assert
  (forall (($a22352361 (Array Int Int)) ($a2412367 Int) ($a62392365 (Array Int Int)) ($a32362362 (Array Int Int)) ($x2432369 Int) ($a52382364 (Array Int Int)) ($i2422368 Int) ($a72402366 (Array Int Int)) ($a12342360 (Array Int Int)) ($a42372363 (Array Int Int)))
    (=> (and (< $i2422368 100000)
             ($main_inv149 $a12342360 $a22352361 $a32362362 $a42372363 $a52382364 $a62392365 $a72402366 $a2412367 $i2422368 $x2432369))
        ($main_inv149 $a12342360 $a22352361 (store $a32362362 $i2422368 (select $a22352361 $i2422368)) $a42372363 $a52382364 $a62392365 $a72402366 $a2412367 (+ $i2422368 1) $x2432369))))

; loop entry $main_inv150
(assert
  (forall (($a22352371 (Array Int Int)) ($a32362372 (Array Int Int)) ($a52382374 (Array Int Int)) ($x2432379 Int) ($a42372373 (Array Int Int)) ($a12342370 (Array Int Int)) ($a2412377 Int) ($a72402376 (Array Int Int)) ($a62392375 (Array Int Int)) ($i2422378 Int))
    (=> (and ($main_sum149 $a12342370 $a22352371 $a32362372 $a42372373 $a52382374 $a62392375 $a72402376 $a2412377 $i2422378 $x2432379))
        ($main_inv150 $a12342370 $a22352371 $a32362372 $a42372373 $a52382374 $a62392375 $a72402376 $a2412377 0 $x2432379))))

; loop term $main_sum150
(assert
  (forall (($a32362382 (Array Int Int)) ($a72402386 (Array Int Int)) ($x2432389 Int) ($a12342380 (Array Int Int)) ($a22352381 (Array Int Int)) ($i2422388 Int) ($a62392385 (Array Int Int)) ($a2412387 Int) ($a42372383 (Array Int Int)) ($a52382384 (Array Int Int)))
    (=> (and (not (< $i2422388 100000))
             ($main_inv150 $a12342380 $a22352381 $a32362382 $a42372383 $a52382384 $a62392385 $a72402386 $a2412387 $i2422388 $x2432389))
        ($main_sum150 $a12342380 $a22352381 $a32362382 $a42372383 $a52382384 $a62392385 $a72402386 $a2412387 $i2422388 $x2432389))))

; forwards $main_inv150
(assert
  (forall (($a32362382 (Array Int Int)) ($a72402386 (Array Int Int)) ($x2432389 Int) ($a12342380 (Array Int Int)) ($a22352381 (Array Int Int)) ($i2422388 Int) ($a62392385 (Array Int Int)) ($a2412387 Int) ($a42372383 (Array Int Int)) ($a52382384 (Array Int Int)))
    (=> (and (< $i2422388 100000)
             ($main_inv150 $a12342380 $a22352381 $a32362382 $a42372383 $a52382384 $a62392385 $a72402386 $a2412387 $i2422388 $x2432389))
        ($main_inv150 $a12342380 $a22352381 $a32362382 (store $a42372383 $i2422388 (select $a32362382 $i2422388)) $a52382384 $a62392385 $a72402386 $a2412387 (+ $i2422388 1) $x2432389))))

; loop entry $main_inv151
(assert
  (forall (($a22352391 (Array Int Int)) ($a72402396 (Array Int Int)) ($a42372393 (Array Int Int)) ($a52382394 (Array Int Int)) ($a32362392 (Array Int Int)) ($i2422398 Int) ($a12342390 (Array Int Int)) ($x2432399 Int) ($a62392395 (Array Int Int)) ($a2412397 Int))
    (=> (and ($main_sum150 $a12342390 $a22352391 $a32362392 $a42372393 $a52382394 $a62392395 $a72402396 $a2412397 $i2422398 $x2432399))
        ($main_inv151 $a12342390 $a22352391 $a32362392 $a42372393 $a52382394 $a62392395 $a72402396 $a2412397 0 $x2432399))))

; loop term $main_sum151
(assert
  (forall (($a42372403 (Array Int Int)) ($i2422408 Int) ($a72402406 (Array Int Int)) ($x2432409 Int) ($a12342400 (Array Int Int)) ($a52382404 (Array Int Int)) ($a22352401 (Array Int Int)) ($a62392405 (Array Int Int)) ($a32362402 (Array Int Int)) ($a2412407 Int))
    (=> (and (not (< $i2422408 100000))
             ($main_inv151 $a12342400 $a22352401 $a32362402 $a42372403 $a52382404 $a62392405 $a72402406 $a2412407 $i2422408 $x2432409))
        ($main_sum151 $a12342400 $a22352401 $a32362402 $a42372403 $a52382404 $a62392405 $a72402406 $a2412407 $i2422408 $x2432409))))

; forwards $main_inv151
(assert
  (forall (($a42372403 (Array Int Int)) ($i2422408 Int) ($a72402406 (Array Int Int)) ($x2432409 Int) ($a12342400 (Array Int Int)) ($a52382404 (Array Int Int)) ($a22352401 (Array Int Int)) ($a62392405 (Array Int Int)) ($a32362402 (Array Int Int)) ($a2412407 Int))
    (=> (and (< $i2422408 100000)
             ($main_inv151 $a12342400 $a22352401 $a32362402 $a42372403 $a52382404 $a62392405 $a72402406 $a2412407 $i2422408 $x2432409))
        ($main_inv151 $a12342400 $a22352401 $a32362402 $a42372403 (store $a52382404 $i2422408 (select $a42372403 $i2422408)) $a62392405 $a72402406 $a2412407 (+ $i2422408 1) $x2432409))))

; loop entry $main_inv152
(assert
  (forall (($a52382414 (Array Int Int)) ($a62392415 (Array Int Int)) ($i2422418 Int) ($a32362412 (Array Int Int)) ($a2412417 Int) ($x2432419 Int) ($a12342410 (Array Int Int)) ($a72402416 (Array Int Int)) ($a22352411 (Array Int Int)) ($a42372413 (Array Int Int)))
    (=> (and ($main_sum151 $a12342410 $a22352411 $a32362412 $a42372413 $a52382414 $a62392415 $a72402416 $a2412417 $i2422418 $x2432419))
        ($main_inv152 $a12342410 $a22352411 $a32362412 $a42372413 $a52382414 $a62392415 $a72402416 $a2412417 0 $x2432419))))

; loop term $main_sum152
(assert
  (forall (($a52382424 (Array Int Int)) ($a2412427 Int) ($x2432429 Int) ($a22352421 (Array Int Int)) ($a32362422 (Array Int Int)) ($a72402426 (Array Int Int)) ($a12342420 (Array Int Int)) ($a62392425 (Array Int Int)) ($i2422428 Int) ($a42372423 (Array Int Int)))
    (=> (and (not (< $i2422428 100000))
             ($main_inv152 $a12342420 $a22352421 $a32362422 $a42372423 $a52382424 $a62392425 $a72402426 $a2412427 $i2422428 $x2432429))
        ($main_sum152 $a12342420 $a22352421 $a32362422 $a42372423 $a52382424 $a62392425 $a72402426 $a2412427 $i2422428 $x2432429))))

; forwards $main_inv152
(assert
  (forall (($a52382424 (Array Int Int)) ($a2412427 Int) ($x2432429 Int) ($a22352421 (Array Int Int)) ($a32362422 (Array Int Int)) ($a72402426 (Array Int Int)) ($a12342420 (Array Int Int)) ($a62392425 (Array Int Int)) ($i2422428 Int) ($a42372423 (Array Int Int)))
    (=> (and (< $i2422428 100000)
             ($main_inv152 $a12342420 $a22352421 $a32362422 $a42372423 $a52382424 $a62392425 $a72402426 $a2412427 $i2422428 $x2432429))
        ($main_inv152 $a12342420 $a22352421 $a32362422 $a42372423 $a52382424 (store $a62392425 $i2422428 (select $a52382424 $i2422428)) $a72402426 $a2412427 (+ $i2422428 1) $x2432429))))

; loop entry $main_inv153
(assert
  (forall (($a2412437 Int) ($a22352431 (Array Int Int)) ($a52382434 (Array Int Int)) ($a12342430 (Array Int Int)) ($x2432439 Int) ($a72402436 (Array Int Int)) ($a42372433 (Array Int Int)) ($a62392435 (Array Int Int)) ($i2422438 Int) ($a32362432 (Array Int Int)))
    (=> (and ($main_sum152 $a12342430 $a22352431 $a32362432 $a42372433 $a52382434 $a62392435 $a72402436 $a2412437 $i2422438 $x2432439))
        ($main_inv153 $a12342430 $a22352431 $a32362432 $a42372433 $a52382434 $a62392435 $a72402436 $a2412437 0 $x2432439))))

; loop term $main_sum153
(assert
  (forall (($a62392445 (Array Int Int)) ($x2432449 Int) ($a12342440 (Array Int Int)) ($a2412447 Int) ($a52382444 (Array Int Int)) ($a72402446 (Array Int Int)) ($i2422448 Int) ($a32362442 (Array Int Int)) ($a22352441 (Array Int Int)) ($a42372443 (Array Int Int)))
    (=> (and (not (< $i2422448 100000))
             ($main_inv153 $a12342440 $a22352441 $a32362442 $a42372443 $a52382444 $a62392445 $a72402446 $a2412447 $i2422448 $x2432449))
        ($main_sum153 $a12342440 $a22352441 $a32362442 $a42372443 $a52382444 $a62392445 $a72402446 $a2412447 $i2422448 $x2432449))))

; forwards $main_inv153
(assert
  (forall (($a62392445 (Array Int Int)) ($x2432449 Int) ($a12342440 (Array Int Int)) ($a2412447 Int) ($a52382444 (Array Int Int)) ($a72402446 (Array Int Int)) ($i2422448 Int) ($a32362442 (Array Int Int)) ($a22352441 (Array Int Int)) ($a42372443 (Array Int Int)))
    (=> (and (< $i2422448 100000)
             ($main_inv153 $a12342440 $a22352441 $a32362442 $a42372443 $a52382444 $a62392445 $a72402446 $a2412447 $i2422448 $x2432449))
        ($main_inv153 $a12342440 $a22352441 $a32362442 $a42372443 $a52382444 $a62392445 (store $a72402446 $i2422448 (select $a62392445 $i2422448)) $a2412447 (+ $i2422448 1) $x2432449))))

; loop entry $main_inv154
(assert
  (forall (($a52382454 (Array Int Int)) ($i2422458 Int) ($a2412457 Int) ($a42372453 (Array Int Int)) ($a12342450 (Array Int Int)) ($a32362452 (Array Int Int)) ($a62392455 (Array Int Int)) ($a72402456 (Array Int Int)) ($a22352451 (Array Int Int)) ($x2432459 Int))
    (=> (and ($main_sum153 $a12342450 $a22352451 $a32362452 $a42372453 $a52382454 $a62392455 $a72402456 $a2412457 $i2422458 $x2432459))
        ($main_inv154 $a12342450 $a22352451 $a32362452 $a42372453 $a52382454 $a62392455 $a72402456 $a2412457 $i2422458 0))))

; loop term $main_sum154
(assert
  (forall (($a22352461 (Array Int Int)) ($a32362462 (Array Int Int)) ($a52382464 (Array Int Int)) ($a42372463 (Array Int Int)) ($a72402466 (Array Int Int)) ($a12342460 (Array Int Int)) ($a62392465 (Array Int Int)) ($x2432469 Int) ($i2422468 Int) ($a2412467 Int))
    (=> (and (not (< $x2432469 100000))
             ($main_inv154 $a12342460 $a22352461 $a32362462 $a42372463 $a52382464 $a62392465 $a72402466 $a2412467 $i2422468 $x2432469))
        ($main_sum154 $a12342460 $a22352461 $a32362462 $a42372463 $a52382464 $a62392465 $a72402466 $a2412467 $i2422468 $x2432469))))

; __VERIFIER_assert precondition
(assert
  (forall (($a22352461 (Array Int Int)) ($a32362462 (Array Int Int)) ($a52382464 (Array Int Int)) ($a42372463 (Array Int Int)) ($a72402466 (Array Int Int)) ($a12342460 (Array Int Int)) ($a62392465 (Array Int Int)) ($x2432469 Int) ($i2422468 Int) ($a2412467 Int))
    (=> (and (< $x2432469 100000)
             ($main_inv154 $a12342460 $a22352461 $a32362462 $a42372463 $a52382464 $a62392465 $a72402466 $a2412467 $i2422468 $x2432469))
        ($__VERIFIER_assert_pre (ite (= (select $a12342460 $x2432469) (select $a72402466 $x2432469)) 1 0)))))

; forwards $main_inv154
(assert
  (forall (($a22352461 (Array Int Int)) ($a32362462 (Array Int Int)) ($a52382464 (Array Int Int)) ($a42372463 (Array Int Int)) ($a72402466 (Array Int Int)) ($a12342460 (Array Int Int)) ($a62392465 (Array Int Int)) ($x2432469 Int) ($i2422468 Int) ($a2412467 Int))
    (=> (and (__VERIFIER_assert (ite (= (select $a12342460 $x2432469) (select $a72402466 $x2432469)) 1 0))
             (< $x2432469 100000)
             ($main_inv154 $a12342460 $a22352461 $a32362462 $a42372463 $a52382464 $a62392465 $a72402466 $a2412467 $i2422468 $x2432469))
        ($main_inv154 $a12342460 $a22352461 $a32362462 $a42372463 $a52382464 $a62392465 $a72402466 $a2412467 $i2422468 (+ $x2432469 1)))))

(check-sat)
